letting maxWeight=108
letting values=[5, 10, 3, 12, 37, 21, 31, 21, 21, 27, 28, 3, 26, 24, 38, 1, 9, 10, 24, 16, 26, 23, 19, 23, 34, 8, 40, 39, 27, 13, 12, 17, 31, 25, 18, 43, 36, 14, 38, 40, 42, 19, 12, 5, 20, 16, 41, 36, 26, 10, 2, 6, 43, 33, 15, 35, 43, 34, 7, 34, 41, 18, 14, 31, 43]
letting weights=[18, 13, 6, 11, 4, 19, 9, 20, 1, 24, 10, 20, 15, 1, 18, 11, 16, 18, 16, 11, 9, 22, 23, 18, 3, 6, 13, 11, 12, 9, 16, 7, 9, 18, 9, 15, 24, 7, 7, 5, 13, 20, 5, 10, 21, 11, 12, 11, 17, 14, 23, 20, 17, 14, 8, 8, 1, 3, 12, 2, 21, 9, 13, 11, 15]
